
Gurobi 11.0.1 (win64) logging started Wed Mar 13 20:00:53 2024

Set parameter LogFile to value "C:\Projetos\Job_Rotation_Algorithms\Outputs\GurobiLogs\gurobi_log-output-39_ros-c22-BorbaRittModel-NoExtraConstraint-2.log"
Gurobi Optimizer version 11.0.1 build v11.0.1rc0 (win64 - Windows 10.0 (19045.2))

CPU model: 11th Gen Intel(R) Core(TM) i7-1165G7 @ 2.80GHz, instruction set [SSE2|AVX|AVX2|AVX512]
Thread count: 4 physical cores, 8 logical processors, using up to 1 threads


Gurobi 11.0.1 (win64) logging started Thu Mar 14 07:59:10 2024

Set parameter LogFile to value "C:\Projetos\Job_Rotation_Algorithms\Outputs\GurobiLogs\gurobi_log-output-39_ros-c22-BorbaRittModel-NoExtraConstraint-2.log"
Gurobi Optimizer version 11.0.1 build v11.0.1rc0 (win64 - Windows 10.0 (19045.2))

CPU model: 11th Gen Intel(R) Core(TM) i7-1165G7 @ 2.80GHz, instruction set [SSE2|AVX|AVX2|AVX512]
Thread count: 4 physical cores, 8 logical processors, using up to 1 threads


Gurobi 11.0.1 (win64) logging started Fri Mar 15 00:36:38 2024

Set parameter LogFile to value "C:\Projetos\Job_Rotation_Algorithms\Outputs\GurobiLogs\gurobi_log-output-39_ros-c22-BorbaRittModel-NoExtraConstraint-2.log"
Gurobi Optimizer version 11.0.1 build v11.0.1rc0 (win64 - Windows 10.0 (19045.2))

CPU model: 11th Gen Intel(R) Core(TM) i7-1165G7 @ 2.80GHz, instruction set [SSE2|AVX|AVX2|AVX512]
Thread count: 4 physical cores, 8 logical processors, using up to 1 threads


Gurobi 11.0.1 (win64) logging started Fri Mar 15 08:42:59 2024

Set parameter LogFile to value "C:\Projetos\Job_Rotation_Algorithms\Outputs\GurobiLogs\gurobi_log-output-39_ros-c22-BorbaRittModel-NoExtraConstraint-2.log"
Gurobi Optimizer version 11.0.1 build v11.0.1rc0 (win64 - Windows 10.0 (19045.2))

CPU model: 11th Gen Intel(R) Core(TM) i7-1165G7 @ 2.80GHz, instruction set [SSE2|AVX|AVX2|AVX512]
Thread count: 4 physical cores, 8 logical processors, using up to 1 threads

WLS license 901039 - registered to Bitka Analytics
Optimize a model with 750 rows, 281 columns and 2411 nonzeros
Model fingerprint: 0xac1097a5
Variable types: 2 continuous, 279 integer (279 binary)
Coefficient statistics:
  Matrix range     [1e+00, 2e+01]
  Objective range  [1e+00, 1e+00]
  Bounds range     [1e+00, 4e+01]
  RHS range        [1e+00, 4e+01]
Presolve removed 7 rows and 7 columns
Presolve time: 0.00s
Presolved: 743 rows, 274 columns, 2397 nonzeros
Variable types: 0 continuous, 274 integer (273 binary)

Root relaxation: objective 5.000000e+01, 591 iterations, 0.02 seconds (0.01 work units)

    Nodes    |    Current Node    |     Objective Bounds      |     Work
 Expl Unexpl |  Obj  Depth IntInf | Incumbent    BestBd   Gap | It/Node Time

     0     0   50.00000    0  119          -   50.00000      -     -    0s
     0     0   50.00000    0  120          -   50.00000      -     -    0s
     0     0   50.00000    0  103          -   50.00000      -     -    0s
     0     0   50.00000    0  123          -   50.00000      -     -    0s
     0     0   50.00000    0  120          -   50.00000      -     -    0s
     0     0   50.00000    0  114          -   50.00000      -     -    0s
     0     0   50.00000    0   95          -   50.00000      -     -    0s
     0     0   50.00000    0  116          -   50.00000      -     -    0s
     0     0   50.00000    0   99          -   50.00000      -     -    0s
     0     0   50.00000    0  105          -   50.00000      -     -    0s
     0     0   50.00000    0  116          -   50.00000      -     -    0s
     0     0   50.00000    0  111          -   50.00000      -     -    0s
     0     0   50.00000    0  106          -   50.00000      -     -    0s
     0     0   50.00000    0  106          -   50.00000      -     -    0s
H    0     0                      35.0000000   50.00000  42.9%     -    0s
H    0     0                      36.0000000   50.00000  38.9%     -    0s
     0     2   50.00000    0  106   36.00000   50.00000  38.9%     -    0s
H   26    21                      37.0000000   50.00000  35.1%  77.3    0s
H   56    39                      38.0000000   50.00000  31.6%  63.0    0s
  1517   230 infeasible   29        38.00000   50.00000  31.6%  72.5    5s
* 1903    79              38      39.0000000   47.64011  22.2%  72.7    5s

Cutting planes:
  Flow cover: 3
  Zero half: 1
  RLT: 1

Explored 2181 nodes (154619 simplex iterations) in 6.49 seconds (7.13 work units)
Thread count was 1 (of 8 available processors)

Solution count 5: 39 38 37 ... 35

Optimal solution found (tolerance 1.00e-03)
Best objective 3.900000000000e+01, best bound 3.900000000000e+01, gap 0.0000%
